12
0 56 58 46 65 56 44 45 40 65 95 72
75 0 90 80 59 58 77 84 53 74 74 36
59 96 0 49 39 63 56 90 47 89 49 88
56 60 67 0 53 82 59 20 35 92 68 23
71 23 82 47 0 62 91 17 51 48 72 35
72 21 69 33 72 0 80 50 75 22 58 69
47 22 25 20 49 43 0 99 41 48 85 16
92 21 42 27 20 64 99 0 66 80 18 86
91 78 64 18 68 76 83 60 0 51 17 78
42 78 51 100 40 59 42 22 73 0 27 76
65 77 98 97 66 59 15 76 58 77 0 95
85 42 25 64 80 18 61 87 17 82 98 0
